Route #1: 5 12 58
Route #2: 30 85 11 79
Route #3: 68 90 84 66
Route #4: 71 62 99 98 89
Route #5: 18 10 39
Route #6: 14 49 6 37 87
Route #7: 8 17
Route #8: 40 88 67 44
Route #9: 32 33 53 73 95 24
Route #10: 82 60 59
Route #11: 23 61 100
Route #12: 74 13 4
Route #13: 75 93
Route #14: 35 46 31
Route #15: 38 47 26 48 96 64 34
Route #16: 21 56 94 80
Route #17: 50 91 52
Route #18: 54 70 1
Route #19: 20 41 22 15
Route #20: 27 97 19
Route #21: 57 72 36 29 43 45 2 7
Route #22: 69 16 55 76
Route #23: 86 9 92
Route #24: 25 65 78 42 28
Route #25: 3 77 63
Route #26: 81 51 83
Cost 27591.0000
Time 16.0001